NAME: instance_1671
TYPE: TSP
DIMENSION: 20
EDGE_WEIGHT_TYPE: EUC_2D
NODE_COORD_SECTION
0 36.53 44.69
1 3.95 3.41
2 58.94 67.78
3 57.88 69.94
4 8.24 7.98
5 99.35 99.62
6 91.23 80.87
7 80.09 95.17
8 45.43 86.37
9 44.68 19.66
10 93.53 36.47
11 84.55 22.65
12 8.59 50.78
13 11.72 30.14
14 69.34 23.78
15 76.43 67.76
16 45.21 72.73
17 55.67 54.60
18 59.44 2.41
19 83.26 99.45
EOF
